units lj
atom_style atomic
atom_modify sort 0 0.0
boundary f f f
lattice fcc 0.8442
region box block -100 100 -100 100 -100 100
create_box 1 box
create_atoms 1 random $n 12345 NULL
mass 1 1.0
pair_style lj/cut 100.0
pair_coeff 1 1 1.0 1.0 100.0
pair_modify shift yes
thermo_modify norm no
